(set-info :smt-lib-version 2.6)
(set-logic QF_SLIA)
(set-info :source |
Generated by: Joel Day, Thorsten Ehlers, Mitja Kulczynski, Federico Mora, Florin Manea, Dirk Nowotka, Danny Poulsen, Zhengyang Lu
Application: Test WOORPJE
Target solver: WOORPJE
Publications: Day, J. D., Ehlers, T., Kulczynski, M., Manea, F., Nowotka, D., & Poulsen, D. B. (2019). On solving word equations using SAT. In RP 2019
Description: Enriches a system of 30 word equations by suitable linear constraints
|)
(set-info :license "https://creativecommons.org/licenses/by/4.0/")
(set-info :category "random")
(set-info :status unknown)

(declare-fun G () String)
(declare-fun J () String)
(declare-fun C () String)
(declare-fun D () String)
(assert (= (str.++  "deaedccdfbeab" J "cbebdedc")  (str.++  D "c" C "fafcbebdedc") ))
(assert (= (str.++  "eafdbfaafdadaabfeedacfafffdfebabe" G "cfdd")  (str.++  "eafdbfaafdadaabfeedacfafffdfebabefbfcfdd" "") ))
(assert (= (str.++  "eaefbffdbacdeaeedefdaeecafdbbecfabafbbda" "")  (str.++  "eae" G "fdbacdeaeedefdaeecafdbbecfabafbbda") ))
(assert (>=(* (str.len C) 10) 70))
(assert (<=(* (str.len G) 1) 21))
(assert (<=(* (str.len D) 13) 1846))
(assert (>=(* (str.len J) 15) 120))
(assert (<=(* (str.len J) 3) 129))
(check-sat)

(exit)
